JulietBench/Juliet_Based_Patch_Bench/qemu/CWE-190-Integer-Overflow-or-Wraparound/CVE_2014_0143_db8a31d11d6a60f48d6817530640d75aa72a9a2f/solverget_refcount.smt2
; benchmark generated from python API
(set-info :status unknown)
(declare-fun R () (_ BitVec 32))
(declare-fun rsi () (_ BitVec 64))
(declare-fun rdi () (_ BitVec 64))
(declare-fun rdx () (_ BitVec 64))
(assert
 (let (($x190 (= (_ bv0 32) R)))
 (let ((?x39 ((_ extract 5 0) rsi)))
 (let ((?x40 (bvadd (_ bv63 6) ?x39)))
 (let ((?x52 (concat (_ bv0 58) ?x40)))
 (let ((?x53 (bvashr rdi ?x52)))
 (let ((?x136 ((_ extract 31 0) ?x53)))
 (let ((?x109 ((_ sign_extend 32) ?x136)))
 (let (($x79 (bvsle rdx ?x109)))
 (let (($x193 (and $x79 $x190)))
 (let ((?x88 ((_ extract 4 0) rsi)))
 (let ((?x89 (bvadd (_ bv31 5) ?x88)))
 (let ((?x101 (concat (_ bv0 59) ?x89)))
 (let ((?x102 (bvshl (_ bv1 64) ?x101)))
 (let ((?x103 ((_ extract 31 0) ?x102)))
 (let ((?x110 (bvadd (_ bv4294967295 32) ?x103)))
 (let ((?x118 (bvnot ?x110)))
 (let ((?x240 ((_ extract 31 0) rdi)))
 (let ((?x445 (bvnot ?x240)))
 (let ((?x142 (bvor ?x445 ?x118)))
 (let ((?x813 (bvnot ?x142)))
 (let (($x400 (= R ?x813)))
 (let (($x95 (bvsgt rdx ?x109)))
 (let (($x191 (and $x95 $x400)))
 (let (($x556 (or $x191 $x193)))
 (let (($x122 (not $x556)))
 (let ((?x464 (bvor ?x118 ?x445)))
 (let ((?x321 (bvnot ?x464)))
 (let (($x357 (= R ?x321)))
 (let (($x25 (bvult ?x53 rdx)))
 (let (($x129 (and $x25 $x357)))
 (let (($x67 (bvuge ?x53 rdx)))
 (let (($x305 (and $x67 $x190)))
 (let (($x123 (or $x305 $x129)))
 (let (($x125 (not $x123)))
 (let (($x257 (and $x125 $x122)))
 (let (($x225 (and $x123 $x556)))
 (let (($x126 (or $x225 $x257)))
 (not $x126)))))))))))))))))))))))))))))))))))))))
(check-sat)
